NAME : fri26.935.tour
COMMENT : Length = 935
COMMENT : Found by LKH-3 [Keld Helsgaun] Sun Jan 11 02:05:38 2026
TYPE : TOUR
DIMENSION : 26
TOUR_SECTION
1
2
3
4
6
5
7
8
9
10
14
15
12
13
11
16
19
20
18
17
21
22
26
23
24
25
-1
EOF
